# Solution for model r5_t27_m4_4 Batch Number: 3
# Finished Task: 21 / 27
# Makespan: 532.0, Total Distance: 432.0, Total Time: 3.3012
# R O S F Batch
0 0 5 0.0 0.0 -1
1 1 29 0.0 0.0 -1
2 2 23 0.0 0.0 -1
3 3 25 0.0 0.0 -1
4 4 28 0.0 0.0 -1
5 0 12 204.0 230.0 0
6 0 -1 502.0 532.0 2
7 2 -1 479.0 502.0 2
8 4 18 334.0 354.0 0
9 -1 -1 -1.0 -1.0 2
10 1 19 384.0 416.0 2
11 -1 -1 -1.0 -1.0 2
12 0 27 253.0 277.0 1
13 -1 -1 -1.0 -1.0 1
14 1 10 308.0 336.0 0
15 -1 -1 -1.0 -1.0 1
16 0 20 359.0 384.0 1
17 2 31 223.0 258.0 0
18 4 26 416.0 437.0 2
19 1 -1 424.0 459.0 2
20 0 6 408.0 447.0 1
21 -1 -1 -1.0 -1.0 2
22 4 -1 501.0 532.0 2
23 2 17 56.0 84.0 0
24 4 8 310.0 334.0 0
25 3 -1 287.0 314.0 0
26 4 22 452.0 488.0 2
27 0 16 313.0 348.0 1
28 4 24 108.0 143.0 0
29 1 14 236.0 258.0 0
30 -1 -1 -1.0 -1.0 2
31 2 7 322.0 354.0 0
